
Gurobi 7.5.2 (linux64) logging started Sat Jun 23 17:35:28 2018

Changed value of parameter LogFile to result/ilp/simNo_6-n_100-m_40-s_4-minVAF_0.05-cov_2000-k_1-fn_0.10-fp_0.0001-na_0.15.ILP.gurobiSolverLog
   Prev: gurobi.log  Default: 
Changed value of parameter TimeLimit to 86400.0
   Prev: 1e+100  Min: 0.0  Max: 1e+100  Default: 1e+100
Optimize a model with 1265601 rows, 330440 columns and 3489120 nonzeros
Variable types: 0 continuous, 330440 integer (330440 binary)
Coefficient statistics:
  Matrix range     [3e-03, 3e+00]
  Objective range  [6e-01, 9e+00]
  Bounds range     [1e+00, 1e+00]
  RHS range        [3e-01, 2e+00]
Found heuristic solution: objective -15305.54868
Presolve removed 318543 rows and 213953 columns (presolve time = 5s) ...
Presolve removed 335005 rows and 213953 columns (presolve time = 11s) ...
Presolve removed 335714 rows and 213953 columns (presolve time = 15s) ...
Presolve removed 336442 rows and 213953 columns (presolve time = 20s) ...
Presolve removed 336526 rows and 213953 columns (presolve time = 25s) ...
Presolve removed 336526 rows and 213953 columns (presolve time = 30s) ...
Presolve removed 336526 rows and 213953 columns (presolve time = 35s) ...
Presolve removed 336526 rows and 213953 columns (presolve time = 40s) ...
Presolve removed 336526 rows and 213953 columns (presolve time = 45s) ...
Presolve removed 336526 rows and 213953 columns (presolve time = 56s) ...
Presolve removed 336526 rows and 213953 columns
Presolve time: 59.16s
Presolved: 929075 rows, 116487 columns, 2577125 nonzeros
Variable types: 0 continuous, 116487 integer (116487 binary)
Presolve removed 0 rows and 0 columns (presolve time = 6s) ...
Presolved: 116487 rows, 1045562 columns, 2693612 nonzeros

Presolve removed 116487 rows and 1045562 columns

Root simplex log...

Iteration    Objective       Primal Inf.    Dual Inf.      Time
       0    7.3482463e+00   0.000000e+00   9.965600e+04     76s
   13615   -2.2642676e+02   0.000000e+00   6.766350e+04     80s
   23356   -2.6646633e+02   0.000000e+00   6.091719e+04     85s
   33670   -2.9581463e+02   0.000000e+00   4.132594e+04     90s
   38193   -3.0547647e+02   0.000000e+00   0.000000e+00     96s
   38193   -3.0547647e+02   0.000000e+00   0.000000e+00     99s

Root relaxation: objective -3.054765e+02, 38193 iterations, 35.36 seconds
Total elapsed time = 101.10s
Total elapsed time = 139.80s
Total elapsed time = 157.89s
Total elapsed time = 187.84s

    Nodes    |    Current Node    |     Objective Bounds      |     Work
 Expl Unexpl |  Obj  Depth IntInf | Incumbent    BestBd   Gap | It/Node Time

     0     0 -305.47647    0 1011 -15305.549 -305.47647  98.0%     -  200s
H    0     0                    -373.3755462 -305.47647  18.2%     -  222s
     0     0 -311.61175    0 1025 -373.37555 -311.61175  16.5%     -  273s
     0     0 -316.20309    0 1192 -373.37555 -316.20309  15.3%     -  346s
H    0     0                    -371.2462073 -316.20309  14.8%     -  365s
     0     0 -316.44653    0 1126 -371.24621 -316.44653  14.8%     -  385s
     0     0 -316.47067    0 1129 -371.24621 -316.47067  14.8%     -  399s
     0     0 -316.47067    0 1129 -371.24621 -316.47067  14.8%     -  411s
     0     0 -316.93985    0 1033 -371.24621 -316.93985  14.6%     -  433s
     0     0 -317.40280    0 1030 -371.24621 -317.40280  14.5%     -  462s
     0     0 -317.40280    0 1031 -371.24621 -317.40280  14.5%     -  473s
     0     0 -317.74704    0 1036 -371.24621 -317.74704  14.4%     -  500s
     0     0 -317.74704    0  979 -371.24621 -317.74704  14.4%     -  522s
     0     0 -319.97805    0  844 -371.24621 -319.97805  13.8%     -  557s
     0     0 -319.98897    0  932 -371.24621 -319.98897  13.8%     -  579s
     0     0 -319.98897    0  933 -371.24621 -319.98897  13.8%     -  591s
     0     0 -320.01858    0  979 -371.24621 -320.01858  13.8%     -  611s
     0     0 -320.56246    0  978 -371.24621 -320.56246  13.7%     -  644s
     0     0 -320.56246    0  986 -371.24621 -320.56246  13.7%     -  653s
     0     0 -320.63571    0  951 -371.24621 -320.63571  13.6%     -  680s
     0     0 -320.72359    0  946 -371.24621 -320.72359  13.6%     -  704s
     0     0 -320.73164    0 1036 -371.24621 -320.73164  13.6%     -  718s
     0     0 -322.79347    0  981 -371.24621 -322.79347  13.1%     -  762s
     0     0 -322.79347    0  978 -371.24621 -322.79347  13.1%     -  794s
     0     0 -323.90898    0  982 -371.24621 -323.90898  12.8%     -  826s
     0     0 -323.90898    0  989 -371.24621 -323.90898  12.8%     -  855s
     0     0 -323.90898    0  912 -371.24621 -323.90898  12.8%     -  875s
     0     0 -323.90898    0  955 -371.24621 -323.90898  12.8%     -  901s
     0     0 -325.02448    0  899 -371.24621 -325.02448  12.5%     - 1089s
     0     0 -325.02448    0  900 -371.24621 -325.02448  12.5%     - 1119s
     0     0 -327.03128    0  919 -371.24621 -327.03128  11.9%     - 1164s
     0     0 -327.03488    0  919 -371.24621 -327.03488  11.9%     - 1193s
     0     0 -327.03784    0  921 -371.24621 -327.03784  11.9%     - 1208s
     0     0 -327.03784    0  892 -371.24621 -327.03784  11.9%     - 1219s
     0     0 -327.03784    0  985 -371.24621 -327.03784  11.9%     - 1238s
     0     0 -327.40967    0 1003 -371.24621 -327.40967  11.8%     - 1267s
     0     0 -327.54012    0  995 -371.24621 -327.54012  11.8%     - 1281s
     0     0 -327.61919    0 1008 -371.24621 -327.61919  11.8%     - 1295s
     0     0 -327.62598    0 1000 -371.24621 -327.62598  11.7%     - 1308s
     0     0 -328.90209    0  814 -371.24621 -328.90209  11.4%     - 1452s
     0     0 -329.29080    0  978 -371.24621 -329.29080  11.3%     - 1475s
     0     0 -329.29080    0  981 -371.24621 -329.29080  11.3%     - 1486s
     0     0 -331.25478    0 1018 -371.24621 -331.25478  10.8%     - 1519s
     0     0 -331.39383    0 1025 -371.24621 -331.39383  10.7%     - 1553s
     0     0 -331.39383    0 1030 -371.24621 -331.39383  10.7%     - 1567s
     0     0 -333.84073    0 1009 -371.24621 -333.84073  10.1%     - 1603s
     0     0 -333.94718    0  945 -371.24621 -333.94718  10.0%     - 1634s
     0     0 -333.94718    0  907 -371.24621 -333.94718  10.0%     - 1648s
     0     0 -334.27177    0  945 -371.24621 -334.27177  10.0%     - 1678s
     0     0 -334.43996    0  948 -371.24621 -334.43996  9.91%     - 1715s
     0     0 -334.49657    0  934 -371.24621 -334.49657  9.90%     - 1731s
     0     0 -334.57746    0  948 -371.24621 -334.57746  9.88%     - 1748s
     0     0 -334.64987    0  945 -371.24621 -334.64987  9.86%     - 1762s
     0     0 -334.66077    0  948 -371.24621 -334.66077  9.85%     - 1775s
     0     0 -334.66077    0  949 -371.24621 -334.66077  9.85%     - 1784s
     0     0 -335.97741    0  984 -371.24621 -335.97741  9.50%     - 1816s
     0     0 -337.26839    0  804 -371.24621 -337.26839  9.15%     - 1852s
     0     0 -337.36860    0 1003 -371.24621 -337.36860  9.13%     - 1868s
     0     0 -337.53368    0 1010 -371.24621 -337.53368  9.08%     - 1881s
     0     0 -337.54636    0 1018 -371.24621 -337.54636  9.08%     - 1894s
     0     0 -337.54636    0 1019 -371.24621 -337.54636  9.08%     - 1904s
     0     0 -337.66385    0  999 -371.24621 -337.66385  9.05%     - 1923s
     0     0 -338.71706    0 1012 -371.24621 -338.71706  8.76%     - 1962s
     0     0 -338.82184    0 1016 -371.24621 -338.82184  8.73%     - 1976s
     0     0 -338.84019    0 1010 -371.24621 -338.84019  8.73%     - 1988s
     0     0 -338.84019    0 1010 -371.24621 -338.84019  8.73%     - 1999s
     0     0 -339.94266    0  969 -371.24621 -339.94266  8.43%     - 2032s
     0     0 -339.95390    0  922 -371.24621 -339.95390  8.43%     - 2060s
     0     0 -339.95390    0  922 -371.24621 -339.95390  8.43%     - 2074s
     0     0 -340.51181    0  928 -371.24621 -340.51181  8.28%     - 2101s
     0     0 -340.51181    0  929 -371.24621 -340.51181  8.28%     - 2121s
     0     0 -340.53521    0 1001 -371.24621 -340.53521  8.27%     - 2148s
     0     0 -340.65631    0  938 -371.24621 -340.65631  8.24%     - 2174s
     0     0 -340.71571    0 1015 -371.24621 -340.71571  8.22%     - 2186s
     0     0 -340.71573    0 1023 -371.24621 -340.71573  8.22%     - 2200s
     0     0 -341.78010    0  932 -371.24621 -341.78010  7.94%     - 2436s
     0     0 -342.59207    0  931 -371.24621 -342.59207  7.72%     - 2500s
     0     0 -342.59311    0  931 -371.24621 -342.59311  7.72%     - 2516s
     0     0 -343.40367    0  667 -371.24621 -343.40367  7.50%     - 2556s
     0     0 -343.42898    0 1010 -371.24621 -343.42898  7.49%     - 2587s
     0     0 -343.45319    0  934 -371.24621 -343.45319  7.49%     - 2604s
     0     0 -343.48825    0 1038 -371.24621 -343.48825  7.48%     - 2620s
     0     0 -343.49142    0 1027 -371.24621 -343.49142  7.48%     - 2635s
     0     0 -345.01087    0 1025 -371.24621 -345.01087  7.07%     - 2696s
     0     0 -345.46118    0  955 -371.24621 -345.46118  6.95%     - 2728s
     0     0 -345.74006    0 1023 -371.24621 -345.74006  6.87%     - 2745s
     0     0 -345.78927    0 1029 -371.24621 -345.78927  6.86%     - 2761s
     0     0 -345.79035    0 1030 -371.24621 -345.79035  6.86%     - 2772s
     0     0 -347.86092    0 1098 -371.24621 -347.86092  6.30%     - 2815s
     0     0 -348.11370    0 1109 -371.24621 -348.11370  6.23%     - 2848s
     0     0 -348.14637    0 1111 -371.24621 -348.14637  6.22%     - 2864s
     0     0 -348.14778    0 1108 -371.24621 -348.14778  6.22%     - 2877s
     0     0 -348.55646    0 1036 -371.24621 -348.55646  6.11%     - 2903s
     0     0 -349.19179    0  943 -371.24621 -349.19179  5.94%     - 2940s
     0     0 -349.30283    0 1018 -371.24621 -349.30283  5.91%     - 2954s
     0     0 -349.41076    0 1021 -371.24621 -349.41076  5.88%     - 2968s
     0     0 -349.42068    0 1023 -371.24621 -349.42068  5.88%     - 2977s
     0     0 -349.42068    0 1020 -371.24621 -349.42068  5.88%     - 2986s
     0     0 -350.69360    0  932 -371.24621 -350.69360  5.54%     - 3022s
     0     0 -350.88930    0  927 -371.24621 -350.88930  5.48%     - 3045s
     0     0 -350.94651    0  939 -371.24621 -350.94651  5.47%     - 3058s
     0     0 -350.96367    0  944 -371.24621 -350.96367  5.46%     - 3069s
     0     0 -350.96367    0  956 -371.24621 -350.96367  5.46%     - 3080s
     0     0 -350.96367    0  952 -371.24621 -350.96367  5.46%     - 3100s
     0     0 -350.97679    0  943 -371.24621 -350.97679  5.46%     - 3125s
     0     0 -350.97679    0  955 -371.24621 -350.97679  5.46%     - 3136s
     0     0 -350.97679    0  955 -371.24621 -350.97679  5.46%     - 3158s
     0     0 -350.97679    0  953 -371.24621 -350.97679  5.46%     - 3174s
     0     0 -350.99554    0  915 -371.24621 -350.99554  5.45%     - 3323s
     0     0 -350.99554    0  909 -371.24621 -350.99554  5.45%     - 3376s
     0     2 -350.99882    0  909 -371.24621 -350.99882  5.45%     - 3576s
     1     3 -351.55498    1  890 -371.24621 -351.00516  5.45%  1910 3592s
     2     4 -362.64043    2  882 -371.24621 -351.00516  5.45%  2016 3627s
     4     6 -362.24248    3  876 -371.24621 -351.00516  5.45%  1812 3671s
     5     7 -352.37975    3  919 -371.24621 -351.00516  5.45%  1698 3686s
     7     9 -352.39482    5  791 -371.24621 -351.00516  5.45%  1226 3691s
     8    10 -353.43477    6 1248 -371.24621 -351.00516  5.45%  1181 3708s
     9    11 -355.24055    6  872 -371.24621 -351.00516  5.45%  1289 3725s
    12    14 -354.62583    9  784 -371.24621 -351.00516  5.45%   982 3731s
    13    13     cutoff    9      -371.24621 -351.00516  5.45%  1014 3743s
    14    14 -355.46246   10  739 -371.24621 -351.00516  5.45%   962 3748s
    15    13     cutoff   10      -371.24621 -351.00516  5.45%  1071 3767s
    16    14 -356.57796   11  729 -371.24621 -351.00516  5.45%  1016 3770s
    17    13     cutoff   11      -371.24621 -351.00516  5.45%   987 3778s
    18    14 -357.69347   12  725 -371.24621 -351.00516  5.45%   949 3783s
    19    15 -358.25122   13  716 -371.24621 -351.00516  5.45%   903 3785s
    20    14     cutoff   13      -371.24621 -351.00516  5.45%   880 3794s
    21    15 -358.25122   14  716 -371.24621 -351.00516  5.45%   838 3795s
    24    16     cutoff   16      -371.24621 -351.00516  5.45%   753 3801s
    25    17 -359.92448   17  685 -371.24621 -351.00516  5.45%   727 3805s
    26    18 -367.45415   17  503 -371.24621 -351.00516  5.45%   716 3813s
    27    19 -368.56965   18  498 -371.24621 -351.00516  5.45%   691 3815s
    30    21 -370.80066   20  375 -371.24621 -351.00516  5.45%   628 3821s
    32    21 -370.80066   21  497 -371.24621 -351.00516  5.45%   592 3826s
    36    19 -361.21122    1  890 -371.24621 -352.41690  5.07%   679 3880s
    37    20 -364.13278    2  888 -371.24621 -352.41690  5.07%   680 3894s
    38    21 -366.56959    3  880 -371.24621 -352.41690  5.07%   669 3901s
    40    21     cutoff    4      -371.24621 -352.41690  5.07%   646 3905s
    41    22 -368.27609    5  494 -371.24621 -352.41690  5.07%   639 3910s
    44    21     cutoff    7      -371.24621 -352.41690  5.07%   601 3915s
    47    22 -370.02903    8  392 -371.24621 -352.41690  5.07%   569 3920s
    51    24 -371.14453   11  336 -371.24621 -352.41690  5.07%   527 3926s
    56    23     cutoff   14      -371.24621 -352.41690  5.07%   482 3930s
    58    23 -364.33595    4  887 -371.24621 -352.41753  5.07%   564 3974s
    59    24 -366.80600    5  878 -371.24621 -352.41753  5.07%   557 3980s
    60    25 -368.47926    6  383 -371.24621 -352.41753  5.07%   551 3985s
    64    25 -369.67444    8  295 -371.24621 -352.41753  5.07%   522 3992s
    66    27 -370.78995   10  337 -371.24621 -352.41753  5.07%   508 3997s
    69    25     cutoff   11      -371.24621 -352.41753  5.07%   487 4000s
    71    25 -365.87704    5  871 -371.24621 -353.47865  4.79%   508 4022s
    72    26 -368.10805    6  859 -371.24621 -353.47865  4.79%   505 4029s
    73    25     cutoff    6      -371.24621 -353.47865  4.79%   499 4032s
    75    23     cutoff    7      -371.24621 -353.47865  4.79%   488 4035s
    76    24 -363.97303    7 1323 -371.24621 -353.51032  4.78%   499 4055s
    77    25 -366.77095    8 1017 -371.24621 -353.51032  4.78%   498 4064s
    78    26 -366.77108    9  992 -371.24621 -353.51032  4.78%   492 4066s
    79    27 -368.68314   10  881 -371.24621 -353.51032  4.78%   488 4071s
    80    28 -370.91415   11  876 -371.24621 -353.51032  4.78%   484 4075s
    84    26 -367.23026   10  977 -371.24621 -353.51032  4.78%   466 4082s
    85    27 -367.43793   11  982 -371.24621 -353.51032  4.78%   463 4087s
    87    29 -368.04652   13  884 -371.24621 -353.51032  4.78%   456 4093s
    88    30 -370.35721   14  875 -371.24621 -353.51032  4.78%   453 4095s
    92    28 -370.37938   13  881 -371.24621 -353.51032  4.78%   437 4101s
    95    25     cutoff    8      -371.24621 -355.24116  4.31%   462 4126s
    96    26 -368.11029    7 1273 -371.24621 -355.24331  4.31%   541 4191s
    98    26 -368.66754    8  651 -371.24621 -355.24331  4.31%   532 4198s
    99    27 -369.68516    9  625 -371.24621 -355.24331  4.31%   528 4203s
   100    28 -370.80066   10  624 -371.24621 -355.24331  4.31%   524 4205s
   105    25 -368.68359    7  879 -371.24621 -356.57918  3.95%   549 4252s
   106    24     cutoff    8      -371.24621 -356.57918  3.95%   548 4257s
   108    22     cutoff   12      -371.24621 -358.25122  3.50%   555 4273s
   109    21     cutoff   15      -371.24621 -358.25122  3.50%   558 4282s
   110    20     cutoff   14      -371.24621 -359.92448  3.05%   557 4289s
   111    21 -361.03999   18  683 -371.24621 -359.92448  3.05%   555 4293s
   112    22 -364.50844   19  717 -371.24621 -359.92448  3.05%   571 4312s
   113    23 -364.69435   20  706 -371.24621 -359.92448  3.05%   568 4317s
   114    24 -365.62394   21  696 -371.24621 -359.92448  3.05%   568 4324s
   115    25 -366.23240   22  558 -371.24621 -359.92448  3.05%   564 4328s
   116    26 -367.34791   23  552 -371.24621 -359.92448  3.05%   561 4332s
   118    28 -367.71974   25  694 -371.24621 -359.92448  3.05%   555 4336s
   119    29 -368.46341   26  649 -371.24621 -359.92448  3.05%   551 4340s
   122    32 -369.35582   29  556 -371.24621 -359.92448  3.05%   540 4348s
   123    33 -369.57892   30  503 -371.24621 -359.92448  3.05%   536 4350s
   124    34 -370.69442   31  505 -371.24621 -359.92448  3.05%   536 4356s
   131    33 -370.69442   31  312 -371.24621 -359.92448  3.05%   509 4362s
   134    30     cutoff   18      -371.24621 -361.03999  2.75%   505 4374s
   135    29     cutoff   19      -371.24621 -361.21253  2.70%   504 4379s
   136    28     cutoff    2      -371.24621 -362.25047  2.42%   506 4390s
   137    29 -364.50247    4  875 -371.24621 -362.28402  2.41%   505 4397s
   138    30 -366.17573    5  383 -371.24621 -362.28402  2.41%   503 4402s
   139    31 -366.78418    6  225 -371.24621 -362.28402  2.41%   502 4407s
   141    33 -366.78418    8  197 -371.24621 -362.28402  2.41%   495 4412s
   143    35 -368.45744   10  260 -371.24621 -362.28402  2.41%   491 4419s
   144    36 -369.46140   11  219 -371.24621 -362.28402  2.41%   488 4422s
   145    37 -370.13070   12  235 -371.24621 -362.28402  2.41%   486 4426s
   149    33     cutoff   11      -371.24621 -362.28402  2.41%   477 4431s
   150    32     cutoff    4      -371.24621 -362.67895  2.31%   478 4440s
   151    33 -365.61752    3  832 -371.24621 -362.73910  2.29%   480 4450s
   152    34 -367.84854    4  860 -371.24621 -362.73910  2.29%   480 4461s
   153    35 -368.40629    5  417 -371.24621 -362.73910  2.29%   478 4465s
   155    37 -369.01475    7  239 -371.24621 -362.73910  2.29%   475 4471s
   157    39 -369.01475    9  201 -371.24621 -362.73910  2.29%   469 4475s
   158    40 -369.75842   10  275 -371.24621 -362.73910  2.29%   469 4480s
   160    42 -371.24576   12  144 -371.24621 -362.73910  2.29%   465 4489s
   162    40     cutoff   13      -371.24621 -362.73910  2.29%   459 4490s
   165    37     cutoff    3      -371.24621 -364.01098  1.95%   456 4502s
   166    36     cutoff    8      -371.24621 -364.22582  1.89%   455 4505s
   167    35     cutoff    3      -371.24621 -364.33595  1.86%   455 4511s
   168    34     cutoff    5      -371.24621 -364.55734  1.80%   455 4517s
   169    35 -369.71413   20  569 -371.24621 -364.70472  1.76%   461 4535s
   173    33     cutoff   21      -371.24621 -364.70472  1.76%   453 4541s
   174    32     cutoff   21      -371.24621 -364.77792  1.74%   465 4557s
   175    31     cutoff    5      -371.24621 -365.66186  1.50%   466 4564s
   176    30     cutoff    4      -371.24621 -365.72239  1.49%   465 4568s
   177    29     cutoff   22      -371.24621 -366.20507  1.36%   464 4571s
   179    27     cutoff   23      -371.24621 -366.66067  1.24%   463 4577s
   181    27 -369.66862    9  889 -371.24621 -366.78418  1.20%   462 4584s
   182    26     cutoff   10      -371.24621 -366.78418  1.20%   459 4585s
   185    23     cutoff    8      -371.24621 -366.92993  1.16%   457 4594s
   186    22     cutoff    9      -371.24621 -367.27085  1.07%   456 4597s
   187    21     cutoff   11      -371.24621 -367.30456  1.06%   459 4603s
   188    20     cutoff    6      -371.24621 -367.34791  1.05%   457 4606s
   190    18     cutoff   25      -371.24621 -367.46110  1.02%   456 4610s
   192    16     cutoff   18      -371.24621 -367.71974  0.95%   455 4615s
   194    14     cutoff    5      -371.24621 -367.99928  0.87%   454 4620s
   196    14 -370.63730    6  389 -371.24621 -368.46341  0.75%   452 4628s
   197    13 -371.24576    7  284 -371.24621 -368.46341  0.75%   451 4631s
   200    10     cutoff   29      -371.24621 -368.46341  0.75%   446 4635s
   202     8     cutoff    7      -371.24621 -368.56965  0.72%   446 4643s
   204     6     cutoff   10      -371.24621 -369.01475  0.60%   444 4646s
   207     3     cutoff   30      -371.24621 -369.67444  0.42%   439 4650s

Cutting planes:
  Gomory: 1
  Zero half: 434

Explored 211 nodes (231562 simplex iterations) in 4652.90 seconds
Thread count was 1 (of 80 available processors)

Solution count 3: -371.246 -373.376 -15305.5 

Optimal solution found (tolerance 1.00e-04)
Best objective -3.712462072947e+02, best bound -3.712462072947e+02, gap 0.0000%
